501 1000
1 403
2 267 8 12 15 32 35 46 54 57 64 66 79 84 95 98 101 105 116 127 129 150 151 154 159 165 167 174 177 190 196 197 210 211 214 229 235 240 245 257 260 264 265 270 282 285 306 308 309 315 321 330 331 332 333 342 347 353 359 367 378 385 407 409 410 411 412 415 430 431 441 452 457 462 463 465 475 490 492 493 499
3 330
4 432
5 253
6 315
7 481
8 254 12 15 32 35 46 54 57 62 64 66 79 84 95 96 98 101 105 116 127 129 150 151 154 159 163 165 167 174 177 190 196 197 210 211 214 229 235 240 245 257 260 264 265 270 282 285 306 308 309 313 315 316 321 329 330 331 332 333 334 341 342 347 353 359 367 378 385 407 409 410 411 412 415 418 430 431 441 450 452 457 462 463 465 475 490 492 493 499
9 265
10 461
11 256
12 283 46 54 95 98 101 116 127 151 159 165 167 174 190 196 210 211 229 235 285 308 309 315 321 332 347 353 385 407 409 410 411 412 430 441 457 465 490 499
13 380
14 269
15 351 46 54 95 98 101 127 151 159 165 167 174 190 196 211 229 235 285 308 309 315 321 332 347 353 385 407 409 410 411 412 430 441 457 465 490 499
16 366
17 283
18 351
19 369
20 313
21 318
22 439
23 255
24 306
25 401
26 253
27 346
28 448
29 269
30 283
31 428
32 280 35 46 54 95 98 101 105 116 127 151 154 159 165 167 174 190 196 197 210 211 229 235 265 282 285 306 308 309 315 321 332 342 347 353 378 385 407 409 410 411 412 430 441 457 462 463 465 475 490 493 499
33 292
34 410
35 278 46 54 95 98 101 105 116 127 151 154 159 165 167 174 190 196 210 211 229 235 285 306 308 309 315 321 332 347 353 378 385 407 409 410 411 412 430 441 457 463 465 490 493 499
36 312 127 165 229 308 347 465
37 485
38 256
39 259
40 404
41 294
42 302
43 460
44 264
45 276
46 424 54 64 66 79 84 95 98 101 105 116 127 129 150 151 154 159 165 167 174 177 190 196 197 210 211 229 235 245 257 260 264 265 270 282 285 306 308 309 315 321 331 332 333 342 347 353 359 367 378 385 407 409 410 411 412 415 430 431 441 457 462 463 465 475 490 493 499
47 270
48 306
49 438
50 264
51 298
52 398
53 282
54 320 79 84 95 98 101 105 116 127 129 150 151 154 159 165 167 174 190 196 197 210 211 229 235 245 257 260 264 265 270 282 285 306 308 309 315 321 332 333 342 347 353 359 367 378 385 407 409 410 411 412 415 430 431 441 457 462 463 465 475 490 493 499
55 399
56 261
57 340 98 127 151 159 165 167 190 196 211 229 235 285 308 309 321 332 347 353 385 407 409 410 411 441 457 465 490 499
58 422
59 253
60 325
61 465
62 253 127 151 159 165 167 196 211 229 285 308 321 332 347 353 407 465 499
63 282
64 375 98 127 151 159 165 167 190 196 211 229 235 285 308 309 321 332 347 353 385 407 409 410 411 441 457 465 490 499
65 283
66 342 98 127 151 159 165 167 190 196 211 229 235 285 308 309 315 321 332 347 353 385 407 409 410 411 412 441 457 465 490 499
67 353
68 255
69 392
70 417
71 257
72 326
73 477
74 257
75 266
76 428
77 253
78 319
79 435 98 127 151 159 165 167 174 190 196 211 229 235 285 308 309 315 321 332 347 353 385 407 409 410 411 412 441 457 465 490 499
80 253
81 312
82 471
83 255
84 274 95 98 101 105 116 127 151 159 165 167 174 190 196 210 211 229 235 285 306 308 309 315 321 332 347 353 378 385 407 409 410 411 412 430 441 457 465 490 493 499
85 459
86 253
87 288
88 381
89 293
90 326
91 426
92 258
93 316
94 364
95 266 98 101 105 116 127 129 150 151 154 159 165 167 174 190 196 197 210 211 229 235 245 257 260 264 265 270 282 285 306 308 309 315 321 332 342 347 353 359 367 378 385 407 409 410 411 412 415 430 441 457 462 463 465 475 490 493 499
96 370 98 127 151 159 165 167 196 211 229 285 308 309 321 332 347 353 407 465 499
97 360
98 269 101 105 116 127 129 150 151 154 159 163 165 167 174 177 190 196 197 210 211 214 229 235 240 245 257 260 264 265 270 282 285 306 308 309 313 315 316 321 330 331 332 333 334 342 347 353 359 367 378 385 407 409 410 411 412 415 418 430 431 441 450 452 457 462 463 465 475 490 492 493 499
99 371
100 466
101 260 105 116 127 129 150 151 154 159 165 167 174 190 196 197 210 211 229 235 245 257 260 264 265 270 282 285 306 308 309 315 321 332 333 342 347 353 359 367 378 385 407 409 410 411 412 415 430 441 457 462 463 465 475 490 493 499
102 274
103 398
104 288
105 314 116 127 129 151 154 159 165 167 174 190 196 197 210 211 229 235 264 265 282 285 306 308 309 315 321 332 342 347 353 359 367 378 385 407 409 410 411 412 415 430 441 457 462 463 465 475 490 493 499
106 422
107 263
108 315
109 455
110 264
111 281
112 465
113 267
114 268
115 499
116 250 127 129 150 151 154 159 165 167 174 190 196 197 210 211 229 235 245 260 264 265 282 285 306 308 309 315 321 332 342 347 353 359 367 378 385 407 409 410 411 412 415 430 441 457 462 463 465 475 490 493 499
117 251
118 460
119 257
120 283
121 395
122 274
123 331
124 380
125 280
126 340
127 380 129 150 151 154 159 163 165 167 174 177 190 196 197 210 211 214 229 235 240 245 257 260 264 265 270 282 285 306 308 309 313 315 316 321 329 330 331 332 333 334 341 342 347 353 356 359 367 378 385 407 409 410 411 412 415 418 430 431 441 450 452 456 457 462 463 465 473 475 490 492 493 499
128 285
129 335 151 159 165 167 174 190 196 210 211 229 235 285 306 308 309 315 321 332 347 353 385 407 409 410 411 412 430 441 457 465 490 499
130 444
131 274
132 282
133 403
134 257
135 340
136 366
137 293
138 341 229 347
139 485
140 254
141 261
142 381
143 289
144 330
145 429
146 255
147 316
148 447
149 255
150 298 151 159 165 167 174 190 196 210 211 229 235 285 308 309 315 321 332 347 353 385 407 409 410 411 412 430 441 457 465 490 499
151 389 154 159 163 165 167 174 177 190 196 197 210 211 214 229 235 240 245 257 260 264 265 270 282 285 306 308 309 313 315 316 321 329 330 331 332 333 334 341 342 347 353 359 367 378 385 407 409 410 411 412 415 418 430 431 441 450 452 457 462 463 465 475 490 492 493 499
152 265
153 346
154 454 159 165 167 174 190 196 197 210 211 229 235 265 282 285 306 308 309 315 321 332 342 347 353 378 385 407 409 410 411 412 430 441 457 462 463 465 475 490 493 499
155 251
156 295
157 375
158 282
159 343 163 165 167 174 177 190 196 197 210 211 214 229 235 240 245 257 260 264 265 270 282 285 306 308 309 313 315 316 321 329 330 331 332 333 334 341 342 347 353 359 367 378 385 407 409 410 411 412 415 418 430 431 441 450 452 457 462 463 465 475 490 492 493 499
160 486
161 256
162 258
163 461 165 167 196 211 229 285 308 309 321 332 347 353 407 409 441 457 465 490 499
164 263
165 276 167 174 177 190 196 197 210 211 214 229 235 240 245 257 260 264 265 270 282 285 306 308 309 313 315 316 321 329 330 331 332 333 334 341 342 347 353 356 359 367 378 385 407 409 410 411 412 415 418 430 431 441 450 452 456 457 462 463 465 473 475 490 492 493 499
166 430
167 258 174 177 190 196 197 210 211 214 229 235 240 245 257 260 264 265 270 282 285 306 308 309 313 315 316 321 329 330 331 332 333 334 341 342 347 353 356 359 367 378 385 407 409 410 411 412 415 418 430 431 441 450 452 457 462 463 465 475 490 492 493 499
168 312
169 422
170 280
171 298
172 409
173 285
174 306 190 196 197 210 211 229 235 245 257 260 264 265 270 282 285 306 308 309 315 321 332 333 342 347 353 359 367 378 385 407 409 410 411 412 415 430 431 441 457 462 463 465 475 490 493 499
175 376
176 280
177 344 190 196 211 229 235 285 308 309 321 332 347 353 385 407 409 410 411 441 457 465 490 499
178 487
179 252
180 261
181 375
182 287
183 338
184 372
185 268
186 360
187 394
188 281
189 325
190 382 196 197 210 211 214 229 235 245 257 260 264 265 270 282 285 306 308 309 315 321 330 331 332 333 342 347 353 359 367 378 385 407 409 410 411 412 415 430 431 441 457 462 463 465 475 490 492 493 499
191 253
192 365
193 395
194 263
195 342
196 395 197 210 211 214 229 235 240 245 257 260 264 265 270 282 285 306 308 309 313 315 316 321 329 330 331 332 333 334 341 342 347 353 356 359 367 378 385 407 409 410 411 412 415 418 430 431 441 450 452 457 462 463 465 475 490 492 493 499
197 285 210 211 229 235 285 306 308 309 315 321 332 342 347 353 378 385 407 409 410 411 412 430 441 457 462 463 465 490 493 499
198 320
199 442
200 264
201 294
202 436
203 280
204 284
205 425
206 252
207 323
208 371
209 252
210 377 211 229 235 245 257 260 264 265 282 285 306 308 309 315 321 332 342 347 353 359 367 378 385 407 409 410 411 412 415 430 441 457 462 463 465 475 490 493 499
211 450 214 229 235 240 245 257 260 264 265 270 282 285 306 308 309 313 315 316 321 330 331 332 333 334 342 347 353 359 367 378 385 407 409 410 411 412 415 418 430 431 441 450 452 457 462 463 465 475 490 492 493 499
212 266
213 284
214 425 229 235 285 308 309 321 332 347 353 385 407 409 410 411 441 457 465 490 499
215 252
216 323
217 470
218 264
219 266
220 417
221 254
222 329
223 483
224 250
225 267
226 390
227 268
228 342
229 486 235 240 245 257 260 264 265 270 282 285 306 308 309 313 315 316 321 329 330 331 332 333 334 341 342 347 353 356 359 367 378 385 407 409 410 411 412 415 418 430 431 441 450 452 456 457 462 463 465 473 475 490 492 493 499
230 254
231 260
232 456
233 264
234 280
235 486 240 245 257 260 264 265 270 282 285 306 308 309 315 321 330 331 332 333 342 347 353 359 367 378 385 407 409 410 411 412 415 430 431 441 457 462 463 465 475 490 492 493 499
236 251
237 263
238 365
239 304
240 331 285 308 309 321 332 347 353 385 407 409 410 411 441 457 465 490 499
241 372
242 290
243 338
244 352
245 265 285 308 309 315 321 332 347 353 385 407 409 410 411 412 430 441 457 465 490 499
246 383
247 428
248 277
249 295
250 368
251 282
252 350
253 403
254 265
255 332
256 371
257 296 285 308 309 315 321 332 347 353 385 407 409 410 411 412 430 441 457 465 490 499
258 333
259 399
260 266 285 308 309 315 321 332 347 353 385 407 409 410 411 412 430 441 457 465 490 499
261 335
262 406
263 268
264 326 285 306 308 309 315 321 332 347 353 378 385 407 409 410 411 412 430 441 457 465 490 493 499
265 498 285 306 308 309 315 321 332 347 353 378 385 407 409 410 411 412 430 441 457 463 465 490 493 499
266 250
267 252
268 486
269 256
270 258 285 308 309 315 321 332 347 353 385 407 409 410 411 412 430 441 457 465 490 499
271 408
272 280
273 312
274 422
275 269
276 309
277 455
278 261
279 284
280 490
281 250
282 260 285 306 308 309 315 321 332 347 353 378 385 407 409 410 411 412 430 441 457 463 465 490 493 499
283 466
284 259
285 275 306 308 309 313 315 316 321 329 330 331 332 333 334 341 342 347 353 359 367 378 385 407 409 410 411 412 415 418 430 431 441 450 452 457 462 463 465 475 490 492 493 499
286 462
287 253
288 285
289 415
290 274
291 311
292 359
293 280
294 361
295 396
296 263
297 341
298 479
299 258
300 263
301 401
302 282
303 317
304 385
305 285
306 330 308 309 315 321 332 342 347 353 359 367 378 385 407 409 410 411 412 415 430 441 457 462 463 465 475 490 493 499
307 356
308 269 309 313 315 316 321 329 330 331 332 333 334 341 342 347 353 356 359 367 378 385 407 409 410 411 412 415 418 430 431 441 450 452 456 457 462 463 465 475 490 492 493 499
309 375 313 315 316 321 330 331 332 333 334 342 347 353 359 367 378 385 407 409 410 411 412 415 418 430 431 441 450 452 457 462 463 465 475 490 492 493 499
310 479
311 257
312 264
313 384 321 332 347 353 407 409 441 457 465 490 499
314 275
315 341 321 332 333 342 347 353 359 367 378 385 407 409 410 411 412 415 430 431 441 457 462 463 465 475 490 493 499
316 371 321 332 347 353 407 465 499
317 286
318 343
319 447
320 257
321 296 329 330 331 332 333 334 342 347 353 359 367 378 385 407 409 410 411 412 415 418 430 431 441 450 452 457 462 463 465 475 490 492 493 499
322 394
323 263
324 343
325 493
326 251
327 256
328 465
329 258 332 347 353 407 465
330 277 332 347 353 385 407 409 410 411 441 457 465 490 499
331 397 332 347 353 385 407 409 410 411 441 457 465 490 499
332 273 333 334 341 342 347 353 356 359 367 378 385 407 409 410 411 412 415 418 430 431 441 450 452 457 462 463 465 475 490 492 493 499
333 330 347 353 385 407 409 410 411 412 441 457 465 490 499
334 426 347 353 407 409 441 465 499
335 283
336 291
337 427
338 266
339 307
340 452
341 256 347 353 407 465
342 292 347 353 378 385 407 409 410 411 412 430 441 457 462 463 465 490 493 499
343 474
344 258
345 268
346 412
347 289 353 356 359 367 378 385 407 409 410 411 412 415 418 430 431 441 450 452 456 457 462 463 465 473 475 490 492 493 499
348 299
349 471
350 254
351 275
352 495
353 251 356 359 367 378 385 407 409 410 411 412 415 418 430 431 441 450 452 457 462 463 465 475 490 492 493 499
354 254
355 423
356 276 465
357 301
358 421
359 277 385 407 409 410 411 412 430 441 457 465 490 499
360 302
361 491
362 253
363 256
364 374
365 307
366 319
367 470 385 407 409 410 411 412 430 441 457 465 490 499
368 256
369 274
370 363
371 260
372 377
373 499
374 250
375 251
376 382
377 300
378 318 385 407 409 410 411 412 415 430 441 457 462 463 465 475 490 493 499
379 428
380 252
381 320
382 408
383 257
384 335
385 456 407 409 410 411 412 415 430 431 441 452 457 462 463 465 475 490 492 493 499
386 270
387 274
388 394
389 298
390 308
391 357
392 283
393 360
394 380
395 294
396 326
397 393
398 291
399 316
400 410
401 262
402 328
403 440
404 264
405 296
406 488
407 253 409 410 411 412 415 418 430 431 441 450 452 457 462 463 465 475 490 492 493 499
408 259
409 487 410 411 412 415 418 430 431 441 450 452 457 462 463 465 475 490 492 493 499
410 252 411 412 415 430 431 441 452 457 462 463 465 475 490 492 493 499
411 261 412 415 430 431 441 452 457 462 463 465 475 490 492 493 499
412 463 415 430 431 441 457 462 463 465 475 490 493 499
413 264
414 273
415 418 430 441 457 465 490 499
416 288
417 294
418 354 441 457 465 490 499
419 278
420 368
421 453
422 259
423 288
424 397
425 279
426 324
427 385
428 255
429 360
430 363 441 457 462 463 465 475 490 493 499
431 267 441 457 465 490 499
432 370
433 454
434 267
435 279
436 356
437 318
438 326
439 397
440 272
441 331 450 452 457 462 463 465 475 490 492 493 499
442 353
443 288
444 359
445 351
446 270
447 379
448 350
449 259
450 391 457 465 499
451 473
452 254 457 465 490 499
453 273
454 409
455 272
456 319 465
457 352 462 463 465 475 490 492 493 499
458 318
459 330
460 412
461 278
462 310 463 465 490 493 499
463 401 465 475 490 493 499
464 258
465 341 473 475 490 492 493 499
466 446
467 264
468 290
469 425
470 286
471 289
472 449
473 260
474 291
475 485 490 493 499
476 250
477 265
478 370
479 261
480 369
481 484
482 255
483 261
484 463
485 256
486 281
487 382
488 281
489 337
490 420 492 493 499
491 267
492 313 499
493 387 499
494 297
495 316
496 498
497 250
498 252
499 493
500 252
501 255
